c FILE /home/rafael/Documents/HappySet/MIHS/inputs/happygen/output/graph_random_k4_p0.2_v100_20241127_083622.txt
c SOURCE This is a random graph formed for the happy graph colouring problem.
c DESCRIPTION It was generated using the problem generator of Rhyd Lewis
c
c GRAPH STATS
c Seed                             = 777236048
c Number of Nodes                  = 100
c Edge probability defined by user = 0.5
c Number of colours k              = 4
c Number of pre-assignments        = 20
c Actual density                   = 0.501818
c 
c The degrees of nodes 1 to 100, respectively, are as follows 
c [62, 59, 59, 58, 58, 58, 58, 57, 57, 57, 57, 57, 57, 56, 56, 56, 55, 55, 55, 54, 54, 54, 54, 53, 53, 53, 
c  53, 53, 53, 52, 52, 52, 52, 52, 52, 52, 51, 51, 51, 51, 51, 50, 50, 50, 50, 50, 50, 50, 49, 49, 49, 
c  49, 49, 49, 49, 49, 49, 49, 49, 49, 48, 48, 48, 48, 48, 48, 48, 47, 47, 47, 47, 47, 47, 47, 46, 46, 
c  46, 46, 46, 46, 45, 45, 45, 44, 44, 44, 44, 44, 43, 43, 43, 43, 43, 42, 42, 42, 41, 40, 37, 35] 
c  
p edge 100 2484 4
e 1 2
e 1 3
e 1 5
e 1 6
e 1 7
e 1 8
e 1 9
e 1 10
e 1 11
e 1 12
e 1 15
e 1 16
e 1 17
e 1 19
e 1 21
e 1 22
e 1 23
e 1 24
e 1 25
e 1 26
e 1 27
e 1 28
e 1 29
e 1 30
e 1 31
e 1 34
e 1 36
e 1 37
e 1 38
e 1 39
e 1 40
e 1 41
e 1 42
e 1 46
e 1 47
e 1 51
e 1 52
e 1 57
e 1 58
e 1 59
e 1 60
e 1 61
e 1 62
e 1 63
e 1 65
e 1 66
e 1 67
e 1 69
e 1 71
e 1 75
e 1 77
e 1 78
e 1 83
e 1 85
e 1 87
e 1 88
e 1 89
e 1 92
e 1 93
e 1 95
e 1 97
e 1 98
e 2 3
e 2 4
e 2 7
e 2 8
e 2 9
e 2 10
e 2 12
e 2 13
e 2 14
e 2 16
e 2 17
e 2 19
e 2 21
e 2 22
e 2 23
e 2 24
e 2 25
e 2 29
e 2 32
e 2 33
e 2 36
e 2 38
e 2 39
e 2 40
e 2 41
e 2 44
e 2 45
e 2 47
e 2 48
e 2 50
e 2 51
e 2 53
e 2 54
e 2 56
e 2 57
e 2 58
e 2 60
e 2 62
e 2 64
e 2 65
e 2 66
e 2 68
e 2 73
e 2 75
e 2 76
e 2 77
e 2 78
e 2 79
e 2 80
e 2 81
e 2 84
e 2 87
e 2 88
e 2 91
e 2 93
e 2 96
e 2 98
e 2 99
e 3 4
e 3 5
e 3 6
e 3 7
e 3 10
e 3 13
e 3 14
e 3 15
e 3 16
e 3 18
e 3 20
e 3 21
e 3 23
e 3 26
e 3 27
e 3 29
e 3 30
e 3 31
e 3 36
e 3 37
e 3 38
e 3 42
e 3 44
e 3 46
e 3 47
e 3 48
e 3 49
e 3 54
e 3 55
e 3 56
e 3 61
e 3 62
e 3 63
e 3 64
e 3 65
e 3 66
e 3 67
e 3 69
e 3 71
e 3 73
e 3 74
e 3 77
e 3 78
e 3 80
e 3 82
e 3 83
e 3 84
e 3 87
e 3 88
e 3 89
e 3 91
e 3 92
e 3 94
e 3 95
e 3 96
e 3 98
e 3 100
e 4 7
e 4 8
e 4 9
e 4 11
e 4 12
e 4 13
e 4 14
e 4 15
e 4 16
e 4 17
e 4 18
e 4 20
e 4 21
e 4 22
e 4 23
e 4 24
e 4 25
e 4 27
e 4 28
e 4 29
e 4 30
e 4 31
e 4 34
e 4 35
e 4 36
e 4 43
e 4 44
e 4 45
e 4 46
e 4 48
e 4 51
e 4 55
e 4 57
e 4 59
e 4 60
e 4 61
e 4 62
e 4 63
e 4 65
e 4 66
e 4 67
e 4 69
e 4 72
e 4 73
e 4 74
e 4 79
e 4 81
e 4 82
e 4 84
e 4 86
e 4 88
e 4 93
e 4 94
e 4 95
e 4 97
e 4 100
e 5 6
e 5 7
e 5 8
e 5 10
e 5 12
e 5 13
e 5 14
e 5 15
e 5 16
e 5 17
e 5 19
e 5 20
e 5 24
e 5 25
e 5 26
e 5 27
e 5 28
e 5 30
e 5 33
e 5 34
e 5 36
e 5 37
e 5 38
e 5 39
e 5 40
e 5 47
e 5 48
e 5 50
e 5 53
e 5 55
e 5 58
e 5 59
e 5 60
e 5 61
e 5 62
e 5 65
e 5 66
e 5 67
e 5 68
e 5 69
e 5 71
e 5 72
e 5 73
e 5 75
e 5 78
e 5 79
e 5 82
e 5 85
e 5 86
e 5 89
e 5 90
e 5 91
e 5 92
e 5 93
e 5 95
e 5 98
e 6 7
e 6 8
e 6 9
e 6 10
e 6 11
e 6 12
e 6 13
e 6 16
e 6 17
e 6 21
e 6 22
e 6 27
e 6 28
e 6 30
e 6 32
e 6 35
e 6 37
e 6 38
e 6 41
e 6 42
e 6 43
e 6 44
e 6 45
e 6 46
e 6 48
e 6 50
e 6 51
e 6 52
e 6 53
e 6 59
e 6 60
e 6 61
e 6 62
e 6 64
e 6 65
e 6 66
e 6 67
e 6 70
e 6 71
e 6 72
e 6 74
e 6 77
e 6 78
e 6 79
e 6 80
e 6 81
e 6 85
e 6 87
e 6 89
e 6 91
e 6 92
e 6 94
e 6 95
e 6 99
e 6 100
e 7 8
e 7 11
e 7 12
e 7 13
e 7 14
e 7 18
e 7 19
e 7 20
e 7 21
e 7 22
e 7 23
e 7 24
e 7 27
e 7 29
e 7 31
e 7 32
e 7 33
e 7 34
e 7 36
e 7 37
e 7 40
e 7 41
e 7 43
e 7 47
e 7 49
e 7 50
e 7 51
e 7 53
e 7 54
e 7 55
e 7 56
e 7 57
e 7 58
e 7 61
e 7 62
e 7 63
e 7 69
e 7 73
e 7 74
e 7 76
e 7 77
e 7 81
e 7 83
e 7 84
e 7 85
e 7 86
e 7 91
e 7 92
e 7 95
e 7 96
e 7 97
e 7 100
e 8 10
e 8 11
e 8 13
e 8 15
e 8 19
e 8 20
e 8 21
e 8 24
e 8 25
e 8 28
e 8 29
e 8 31
e 8 32
e 8 33
e 8 34
e 8 36
e 8 37
e 8 38
e 8 40
e 8 41
e 8 42
e 8 44
e 8 46
e 8 47
e 8 48
e 8 49
e 8 50
e 8 51
e 8 54
e 8 56
e 8 57
e 8 59
e 8 60
e 8 63
e 8 66
e 8 68
e 8 70
e 8 72
e 8 73
e 8 74
e 8 77
e 8 78
e 8 79
e 8 81
e 8 85
e 8 86
e 8 89
e 8 90
e 8 94
e 8 97
e 8 99
e 9 10
e 9 11
e 9 12
e 9 13
e 9 14
e 9 15
e 9 16
e 9 17
e 9 20
e 9 21
e 9 22
e 9 23
e 9 26
e 9 29
e 9 32
e 9 33
e 9 36
e 9 39
e 9 41
e 9 42
e 9 43
e 9 44
e 9 46
e 9 47
e 9 49
e 9 50
e 9 51
e 9 52
e 9 53
e 9 54
e 9 57
e 9 60
e 9 64
e 9 66
e 9 67
e 9 71
e 9 72
e 9 73
e 9 74
e 9 75
e 9 76
e 9 78
e 9 81
e 9 84
e 9 85
e 9 86
e 9 87
e 9 88
e 9 89
e 9 92
e 9 94
e 9 95
e 9 100
e 10 11
e 10 14
e 10 15
e 10 16
e 10 17
e 10 18
e 10 21
e 10 22
e 10 23
e 10 25
e 10 27
e 10 29
e 10 31
e 10 33
e 10 34
e 10 35
e 10 37
e 10 39
e 10 40
e 10 41
e 10 42
e 10 44
e 10 46
e 10 49
e 10 51
e 10 54
e 10 57
e 10 58
e 10 59
e 10 61
e 10 62
e 10 63
e 10 64
e 10 67
e 10 70
e 10 72
e 10 73
e 10 74
e 10 75
e 10 76
e 10 81
e 10 84
e 10 87
e 10 89
e 10 92
e 10 93
e 10 94
e 10 96
e 10 97
e 10 98
e 11 12
e 11 13
e 11 14
e 11 15
e 11 18
e 11 20
e 11 21
e 11 22
e 11 23
e 11 24
e 11 25
e 11 26
e 11 28
e 11 30
e 11 31
e 11 32
e 11 34
e 11 35
e 11 39
e 11 41
e 11 42
e 11 47
e 11 50
e 11 51
e 11 52
e 11 53
e 11 54
e 11 55
e 11 56
e 11 58
e 11 59
e 11 63
e 11 65
e 11 66
e 11 68
e 11 69
e 11 74
e 11 75
e 11 76
e 11 77
e 11 78
e 11 82
e 11 83
e 11 85
e 11 92
e 11 94
e 11 95
e 11 97
e 11 98
e 11 100
e 12 13
e 12 15
e 12 17
e 12 19
e 12 20
e 12 21
e 12 22
e 12 23
e 12 24
e 12 25
e 12 28
e 12 29
e 12 30
e 12 31
e 12 33
e 12 34
e 12 35
e 12 37
e 12 38
e 12 39
e 12 40
e 12 41
e 12 43
e 12 45
e 12 49
e 12 52
e 12 53
e 12 54
e 12 55
e 12 56
e 12 59
e 12 60
e 12 63
e 12 64
e 12 66
e 12 70
e 12 71
e 12 75
e 12 76
e 12 77
e 12 79
e 12 81
e 12 82
e 12 83
e 12 86
e 12 88
e 12 95
e 12 98
e 12 100
e 13 14
e 13 15
e 13 17
e 13 18
e 13 20
e 13 21
e 13 22
e 13 24
e 13 26
e 13 28
e 13 29
e 13 30
e 13 32
e 13 33
e 13 34
e 13 37
e 13 40
e 13 46
e 13 47
e 13 50
e 13 51
e 13 52
e 13 53
e 13 54
e 13 55
e 13 56
e 13 57
e 13 60
e 13 62
e 13 65
e 13 67
e 13 68
e 13 70
e 13 71
e 13 72
e 13 74
e 13 76
e 13 78
e 13 81
e 13 82
e 13 83
e 13 84
e 13 88
e 13 89
e 13 90
e 13 94
e 13 98
e 14 17
e 14 18
e 14 19
e 14 21
e 14 22
e 14 23
e 14 24
e 14 29
e 14 30
e 14 31
e 14 33
e 14 38
e 14 40
e 14 43
e 14 44
e 14 45
e 14 47
e 14 48
e 14 49
e 14 50
e 14 51
e 14 52
e 14 53
e 14 54
e 14 56
e 14 60
e 14 62
e 14 64
e 14 66
e 14 68
e 14 71
e 14 73
e 14 76
e 14 79
e 14 80
e 14 81
e 14 82
e 14 85
e 14 88
e 14 89
e 14 90
e 14 91
e 14 92
e 14 93
e 14 97
e 14 98
e 14 100
e 15 16
e 15 18
e 15 21
e 15 23
e 15 25
e 15 26
e 15 27
e 15 28
e 15 29
e 15 30
e 15 32
e 15 33
e 15 35
e 15 36
e 15 39
e 15 42
e 15 43
e 15 45
e 15 48
e 15 50
e 15 51
e 15 55
e 15 56
e 15 57
e 15 58
e 15 63
e 15 64
e 15 66
e 15 67
e 15 69
e 15 70
e 15 71
e 15 77
e 15 79
e 15 80
e 15 82
e 15 83
e 15 84
e 15 86
e 15 87
e 15 90
e 15 91
e 15 92
e 15 93
e 15 95
e 15 100
e 16 17
e 16 18
e 16 20
e 16 22
e 16 24
e 16 25
e 16 26
e 16 27
e 16 30
e 16 33
e 16 34
e 16 35
e 16 37
e 16 41
e 16 45
e 16 46
e 16 47
e 16 48
e 16 51
e 16 55
e 16 56
e 16 57
e 16 59
e 16 61
e 16 63
e 16 64
e 16 65
e 16 66
e 16 67
e 16 69
e 16 71
e 16 74
e 16 75
e 16 76
e 16 81
e 16 83
e 16 84
e 16 87
e 16 88
e 16 90
e 16 91
e 16 92
e 16 93
e 16 96
e 16 97
e 16 98
e 16 99
e 17 18
e 17 19
e 17 20
e 17 22
e 17 23
e 17 25
e 17 26
e 17 28
e 17 30
e 17 31
e 17 32
e 17 33
e 17 35
e 17 36
e 17 37
e 17 39
e 17 41
e 17 43
e 17 46
e 17 48
e 17 49
e 17 52
e 17 57
e 17 59
e 17 62
e 17 63
e 17 65
e 17 66
e 17 67
e 17 69
e 17 76
e 17 80
e 17 82
e 17 83
e 17 85
e 17 87
e 17 88
e 17 89
e 17 91
e 17 92
e 17 94
e 17 97
e 17 99
e 17 100
e 18 21
e 18 22
e 18 23
e 18 24
e 18 25
e 18 26
e 18 32
e 18 34
e 18 35
e 18 36
e 18 37
e 18 38
e 18 39
e 18 41
e 18 42
e 18 43
e 18 47
e 18 48
e 18 49
e 18 50
e 18 51
e 18 54
e 18 58
e 18 60
e 18 63
e 18 65
e 18 67
e 18 72
e 18 73
e 18 76
e 18 78
e 18 79
e 18 82
e 18 85
e 18 86
e 18 87
e 18 88
e 18 89
e 18 91
e 18 92
e 18 93
e 18 94
e 18 95
e 18 96
e 18 99
e 19 21
e 19 23
e 19 24
e 19 26
e 19 29
e 19 31
e 19 33
e 19 35
e 19 37
e 19 41
e 19 42
e 19 43
e 19 45
e 19 48
e 19 49
e 19 50
e 19 53
e 19 54
e 19 55
e 19 56
e 19 57
e 19 58
e 19 60
e 19 63
e 19 65
e 19 66
e 19 67
e 19 68
e 19 69
e 19 70
e 19 71
e 19 77
e 19 79
e 19 80
e 19 82
e 19 83
e 19 84
e 19 85
e 19 86
e 19 87
e 19 89
e 19 90
e 19 92
e 19 93
e 19 95
e 19 96
e 19 99
e 20 21
e 20 22
e 20 23
e 20 24
e 20 26
e 20 27
e 20 28
e 20 30
e 20 31
e 20 33
e 20 35
e 20 37
e 20 38
e 20 39
e 20 40
e 20 42
e 20 43
e 20 45
e 20 46
e 20 49
e 20 52
e 20 55
e 20 59
e 20 60
e 20 62
e 20 66
e 20 69
e 20 70
e 20 73
e 20 74
e 20 76
e 20 78
e 20 80
e 20 83
e 20 84
e 20 89
e 20 90
e 20 92
e 20 94
e 20 95
e 20 96
e 20 97
e 20 99
e 21 24
e 21 25
e 21 26
e 21 28
e 21 30
e 21 33
e 21 34
e 21 36
e 21 37
e 21 39
e 21 41
e 21 42
e 21 44
e 21 47
e 21 48
e 21 51
e 21 53
e 21 55
e 21 56
e 21 57
e 21 58
e 21 60
e 21 61
e 21 62
e 21 63
e 21 67
e 21 71
e 21 73
e 21 75
e 21 77
e 21 78
e 21 83
e 21 85
e 21 87
e 21 91
e 21 93
e 21 96
e 22 23
e 22 25
e 22 26
e 22 27
e 22 29
e 22 31
e 22 35
e 22 36
e 22 37
e 22 38
e 22 39
e 22 43
e 22 45
e 22 46
e 22 47
e 22 48
e 22 50
e 22 51
e 22 53
e 22 54
e 22 55
e 22 58
e 22 59
e 22 60
e 22 65
e 22 66
e 22 68
e 22 69
e 22 70
e 22 72
e 22 73
e 22 74
e 22 77
e 22 79
e 22 80
e 22 90
e 22 94
e 22 96
e 22 98
e 23 25
e 23 27
e 23 31
e 23 32
e 23 33
e 23 34
e 23 35
e 23 38
e 23 39
e 23 40
e 23 42
e 23 44
e 23 45
e 23 46
e 23 48
e 23 49
e 23 52
e 23 54
e 23 55
e 23 61
e 23 66
e 23 67
e 23 68
e 23 69
e 23 71
e 23 73
e 23 74
e 23 75
e 23 82
e 23 83
e 23 84
e 23 86
e 23 88
e 23 89
e 23 95
e 23 96
e 23 97
e 23 100
e 24 25
e 24 26
e 24 27
e 24 30
e 24 31
e 24 33
e 24 40
e 24 43
e 24 44
e 24 45
e 24 46
e 24 47
e 24 48
e 24 49
e 24 50
e 24 54
e 24 55
e 24 57
e 24 61
e 24 62
e 24 65
e 24 66
e 24 69
e 24 70
e 24 75
e 24 76
e 24 78
e 24 81
e 24 83
e 24 84
e 24 87
e 24 89
e 24 90
e 24 91
e 24 93
e 24 94
e 24 98
e 24 99
e 25 26
e 25 27
e 25 29
e 25 31
e 25 32
e 25 33
e 25 34
e 25 36
e 25 38
e 25 40
e 25 41
e 25 43
e 25 46
e 25 48
e 25 53
e 25 54
e 25 56
e 25 59
e 25 62
e 25 64
e 25 68
e 25 71
e 25 74
e 25 76
e 25 79
e 25 81
e 25 83
e 25 84
e 25 85
e 25 86
e 25 87
e 25 89
e 25 91
e 25 93
e 25 98
e 25 99
e 25 100
e 26 28
e 26 29
e 26 30
e 26 36
e 26 38
e 26 39
e 26 43
e 26 44
e 26 45
e 26 48
e 26 50
e 26 52
e 26 53
e 26 54
e 26 55
e 26 57
e 26 58
e 26 59
e 26 60
e 26 61
e 26 63
e 26 64
e 26 68
e 26 70
e 26 72
e 26 73
e 26 75
e 26 76
e 26 78
e 26 81
e 26 83
e 26 84
e 26 85
e 26 90
e 26 92
e 26 94
e 26 97
e 27 28
e 27 29
e 27 30
e 27 32
e 27 34
e 27 35
e 27 36
e 27 40
e 27 41
e 27 43
e 27 46
e 27 47
e 27 48
e 27 49
e 27 56
e 27 57
e 27 61
e 27 62
e 27 63
e 27 65
e 27 66
e 27 67
e 27 70
e 27 74
e 27 75
e 27 76
e 27 77
e 27 78
e 27 80
e 27 82
e 27 87
e 27 89
e 27 90
e 27 91
e 27 93
e 27 95
e 27 97
e 27 98
e 27 99
e 28 29
e 28 33
e 28 34
e 28 35
e 28 38
e 28 39
e 28 41
e 28 42
e 28 43
e 28 45
e 28 46
e 28 50
e 28 51
e 28 53
e 28 54
e 28 55
e 28 56
e 28 58
e 28 59
e 28 61
e 28 62
e 28 63
e 28 64
e 28 65
e 28 66
e 28 69
e 28 71
e 28 72
e 28 73
e 28 74
e 28 75
e 28 78
e 28 80
e 28 81
e 28 84
e 28 86
e 28 89
e 28 91
e 28 100
e 29 30
e 29 33
e 29 35
e 29 36
e 29 40
e 29 41
e 29 44
e 29 45
e 29 46
e 29 48
e 29 49
e 29 50
e 29 51
e 29 53
e 29 55
e 29 57
e 29 58
e 29 60
e 29 63
e 29 64
e 29 65
e 29 70
e 29 73
e 29 75
e 29 76
e 29 78
e 29 79
e 29 81
e 29 86
e 29 87
e 29 91
e 29 92
e 29 95
e 29 96
e 29 98
e 30 31
e 30 33
e 30 35
e 30 36
e 30 37
e 30 41
e 30 43
e 30 46
e 30 47
e 30 48
e 30 50
e 30 51
e 30 56
e 30 60
e 30 61
e 30 65
e 30 68
e 30 70
e 30 73
e 30 74
e 30 75
e 30 76
e 30 80
e 30 82
e 30 84
e 30 86
e 30 87
e 30 90
e 30 91
e 30 93
e 30 94
e 30 97
e 30 98
e 30 100
e 31 33
e 31 35
e 31 37
e 31 39
e 31 40
e 31 41
e 31 42
e 31 44
e 31 45
e 31 48
e 31 50
e 31 52
e 31 54
e 31 55
e 31 57
e 31 60
e 31 61
e 31 62
e 31 72
e 31 75
e 31 78
e 31 79
e 31 81
e 31 83
e 31 84
e 31 88
e 31 91
e 31 92
e 31 93
e 31 94
e 31 96
e 31 97
e 31 98
e 31 99
e 31 100
e 32 34
e 32 35
e 32 36
e 32 37
e 32 39
e 32 40
e 32 41
e 32 42
e 32 43
e 32 45
e 32 46
e 32 47
e 32 49
e 32 50
e 32 51
e 32 53
e 32 58
e 32 59
e 32 60
e 32 61
e 32 62
e 32 64
e 32 65
e 32 67
e 32 71
e 32 72
e 32 77
e 32 79
e 32 80
e 32 81
e 32 83
e 32 84
e 32 85
e 32 86
e 32 88
e 32 95
e 32 96
e 32 98
e 32 99
e 33 35
e 33 36
e 33 38
e 33 39
e 33 40
e 33 45
e 33 46
e 33 49
e 33 55
e 33 57
e 33 58
e 33 61
e 33 63
e 33 65
e 33 66
e 33 68
e 33 70
e 33 71
e 33 72
e 33 73
e 33 76
e 33 78
e 33 80
e 33 81
e 33 82
e 33 86
e 33 90
e 33 91
e 33 93
e 33 94
e 34 35
e 34 36
e 34 37
e 34 39
e 34 42
e 34 44
e 34 49
e 34 51
e 34 53
e 34 57
e 34 58
e 34 59
e 34 60
e 34 61
e 34 62
e 34 65
e 34 66
e 34 69
e 34 72
e 34 75
e 34 76
e 34 78
e 34 79
e 34 81
e 34 83
e 34 84
e 34 85
e 34 87
e 34 88
e 34 92
e 34 94
e 34 95
e 34 96
e 34 97
e 34 100
e 35 36
e 35 37
e 35 38
e 35 39
e 35 44
e 35 51
e 35 55
e 35 60
e 35 62
e 35 63
e 35 64
e 35 66
e 35 70
e 35 71
e 35 72
e 35 75
e 35 79
e 35 80
e 35 81
e 35 82
e 35 84
e 35 86
e 35 89
e 35 90
e 35 91
e 35 92
e 35 93
e 35 94
e 35 96
e 35 98
e 35 100
e 36 38
e 36 41
e 36 42
e 36 44
e 36 46
e 36 47
e 36 51
e 36 57
e 36 58
e 36 60
e 36 61
e 36 64
e 36 66
e 36 68
e 36 71
e 36 72
e 36 74
e 36 75
e 36 77
e 36 82
e 36 84
e 36 85
e 36 86
e 36 88
e 36 89
e 36 91
e 36 93
e 36 94
e 36 96
e 36 99
e 37 38
e 37 40
e 37 41
e 37 42
e 37 44
e 37 45
e 37 46
e 37 47
e 37 49
e 37 50
e 37 51
e 37 54
e 37 57
e 37 59
e 37 61
e 37 64
e 37 65
e 37 66
e 37 71
e 37 73
e 37 74
e 37 76
e 37 78
e 37 83
e 37 86
e 37 88
e 37 90
e 37 92
e 37 95
e 37 96
e 38 39
e 38 40
e 38 41
e 38 42
e 38 43
e 38 47
e 38 51
e 38 52
e 38 54
e 38 55
e 38 56
e 38 57
e 38 59
e 38 60
e 38 63
e 38 64
e 38 67
e 38 68
e 38 70
e 38 71
e 38 73
e 38 78
e 38 80
e 38 83
e 38 85
e 38 87
e 38 89
e 38 90
e 38 91
e 38 93
e 38 96
e 38 97
e 39 40
e 39 42
e 39 43
e 39 44
e 39 46
e 39 49
e 39 50
e 39 52
e 39 53
e 39 54
e 39 56
e 39 58
e 39 60
e 39 61
e 39 63
e 39 69
e 39 70
e 39 72
e 39 75
e 39 80
e 39 82
e 39 88
e 39 89
e 39 90
e 39 91
e 39 92
e 39 96
e 39 97
e 39 98
e 40 42
e 40 43
e 40 44
e 40 47
e 40 48
e 40 49
e 40 50
e 40 57
e 40 58
e 40 61
e 40 64
e 40 67
e 40 68
e 40 71
e 40 72
e 40 76
e 40 77
e 40 78
e 40 79
e 40 80
e 40 82
e 40 83
e 40 86
e 40 87
e 40 88
e 40 89
e 40 90
e 40 96
e 40 99
e 40 100
e 41 42
e 41 44
e 41 46
e 41 47
e 41 49
e 41 51
e 41 52
e 41 55
e 41 57
e 41 59
e 41 60
e 41 61
e 41 65
e 41 68
e 41 69
e 41 79
e 41 80
e 41 81
e 41 82
e 41 83
e 41 87
e 41 88
e 41 89
e 41 93
e 41 94
e 41 99
e 41 100
e 42 43
e 42 44
e 42 46
e 42 47
e 42 52
e 42 53
e 42 56
e 42 57
e 42 58
e 42 60
e 42 61
e 42 62
e 42 63
e 42 70
e 42 72
e 42 73
e 42 74
e 42 77
e 42 83
e 42 86
e 42 88
e 42 90
e 42 92
e 42 95
e 42 97
e 42 99
e 42 100
e 43 44
e 43 45
e 43 50
e 43 51
e 43 52
e 43 61
e 43 63
e 43 67
e 43 69
e 43 73
e 43 74
e 43 75
e 43 77
e 43 79
e 43 80
e 43 81
e 43 84
e 43 87
e 43 88
e 43 89
e 43 90
e 43 91
e 43 92
e 43 93
e 43 95
e 43 97
e 43 100
e 44 46
e 44 47
e 44 48
e 44 49
e 44 50
e 44 51
e 44 52
e 44 55
e 44 56
e 44 57
e 44 60
e 44 61
e 44 63
e 44 64
e 44 68
e 44 69
e 44 71
e 44 76
e 44 80
e 44 82
e 44 84
e 44 85
e 44 86
e 44 89
e 44 92
e 44 94
e 44 97
e 45 47
e 45 49
e 45 50
e 45 51
e 45 52
e 45 54
e 45 55
e 45 57
e 45 58
e 45 59
e 45 61
e 45 65
e 45 66
e 45 67
e 45 68
e 45 70
e 45 72
e 45 74
e 45 75
e 45 76
e 45 80
e 45 85
e 45 86
e 45 88
e 45 90
e 45 91
e 45 92
e 45 93
e 45 97
e 45 98
e 46 47
e 46 48
e 46 51
e 46 52
e 46 55
e 46 58
e 46 61
e 46 62
e 46 63
e 46 65
e 46 66
e 46 68
e 46 74
e 46 75
e 46 77
e 46 79
e 46 82
e 46 86
e 46 89
e 46 90
e 46 92
e 46 94
e 46 96
e 47 48
e 47 51
e 47 52
e 47 53
e 47 55
e 47 57
e 47 58
e 47 60
e 47 64
e 47 65
e 47 70
e 47 72
e 47 73
e 47 75
e 47 77
e 47 79
e 47 81
e 47 82
e 47 87
e 47 88
e 47 90
e 47 98
e 47 99
e 48 50
e 48 53
e 48 55
e 48 56
e 48 58
e 48 60
e 48 61
e 48 62
e 48 64
e 48 66
e 48 67
e 48 68
e 48 69
e 48 73
e 48 78
e 48 79
e 48 80
e 48 82
e 48 85
e 48 87
e 48 89
e 48 95
e 48 97
e 48 99
e 49 52
e 49 54
e 49 55
e 49 58
e 49 62
e 49 64
e 49 67
e 49 69
e 49 70
e 49 71
e 49 72
e 49 73
e 49 74
e 49 76
e 49 77
e 49 79
e 49 81
e 49 84
e 49 85
e 49 88
e 49 89
e 49 90
e 49 92
e 49 94
e 49 97
e 50 52
e 50 53
e 50 54
e 50 55
e 50 56
e 50 60
e 50 62
e 50 63
e 50 67
e 50 72
e 50 73
e 50 74
e 50 78
e 50 80
e 50 82
e 50 84
e 50 86
e 50 90
e 50 94
e 50 95
e 50 98
e 50 100
e 51 54
e 51 56
e 51 59
e 51 60
e 51 62
e 51 64
e 51 65
e 51 68
e 51 70
e 51 71
e 51 74
e 51 79
e 51 84
e 51 85
e 51 86
e 51 87
e 51 91
e 51 98
e 52 53
e 52 55
e 52 56
e 52 57
e 52 58
e 52 61
e 52 62
e 52 63
e 52 64
e 52 66
e 52 67
e 52 68
e 52 71
e 52 72
e 52 73
e 52 76
e 52 82
e 52 83
e 52 84
e 52 87
e 52 90
e 52 93
e 52 94
e 52 95
e 52 96
e 52 99
e 53 54
e 53 56
e 53 62
e 53 65
e 53 66
e 53 67
e 53 69
e 53 70
e 53 71
e 53 72
e 53 73
e 53 74
e 53 75
e 53 77
e 53 78
e 53 79
e 53 80
e 53 89
e 53 91
e 53 92
e 53 93
e 53 96
e 53 97
e 53 99
e 53 100
e 54 55
e 54 56
e 54 58
e 54 61
e 54 63
e 54 67
e 54 68
e 54 69
e 54 70
e 54 71
e 54 72
e 54 76
e 54 77
e 54 79
e 54 81
e 54 86
e 54 89
e 54 90
e 54 91
e 54 93
e 54 95
e 54 99
e 55 56
e 55 59
e 55 65
e 55 66
e 55 68
e 55 70
e 55 71
e 55 73
e 55 76
e 55 77
e 55 78
e 55 79
e 55 88
e 55 90
e 55 91
e 55 92
e 55 98
e 56 57
e 56 59
e 56 63
e 56 64
e 56 66
e 56 67
e 56 69
e 56 71
e 56 72
e 56 73
e 56 77
e 56 78
e 56 80
e 56 83
e 56 84
e 56 87
e 56 88
e 56 92
e 56 93
e 56 95
e 56 96
e 56 98
e 57 58
e 57 59
e 57 62
e 57 63
e 57 64
e 57 68
e 57 69
e 57 74
e 57 75
e 57 77
e 57 78
e 57 79
e 57 81
e 57 82
e 57 86
e 57 87
e 57 89
e 57 97
e 58 59
e 58 62
e 58 63
e 58 64
e 58 65
e 58 67
e 58 68
e 58 70
e 58 78
e 58 79
e 58 81
e 58 86
e 58 90
e 58 91
e 58 93
e 58 94
e 58 95
e 58 96
e 58 97
e 58 100
e 59 61
e 59 62
e 59 63
e 59 64
e 59 65
e 59 68
e 59 71
e 59 72
e 59 74
e 59 75
e 59 81
e 59 82
e 59 84
e 59 85
e 59 87
e 59 88
e 59 91
e 59 92
e 59 93
e 59 97
e 59 98
e 59 99
e 59 100
e 60 61
e 60 62
e 60 66
e 60 67
e 60 68
e 60 69
e 60 71
e 60 73
e 60 74
e 60 75
e 60 78
e 60 81
e 60 82
e 60 85
e 60 94
e 60 96
e 60 97
e 61 63
e 61 64
e 61 67
e 61 72
e 61 74
e 61 75
e 61 76
e 61 77
e 61 79
e 61 81
e 61 83
e 61 85
e 61 90
e 61 97
e 62 66
e 62 68
e 62 70
e 62 71
e 62 72
e 62 77
e 62 80
e 62 84
e 62 85
e 62 87
e 62 88
e 62 92
e 62 93
e 62 96
e 62 98
e 63 64
e 63 69
e 63 70
e 63 71
e 63 72
e 63 75
e 63 82
e 63 83
e 63 84
e 63 85
e 63 89
e 63 90
e 63 92
e 63 100
e 64 66
e 64 67
e 64 68
e 64 69
e 64 71
e 64 75
e 64 77
e 64 80
e 64 81
e 64 84
e 64 85
e 64 86
e 64 87
e 64 88
e 64 95
e 64 98
e 64 100
e 65 67
e 65 68
e 65 71
e 65 72
e 65 73
e 65 75
e 65 76
e 65 77
e 65 78
e 65 79
e 65 82
e 65 84
e 65 85
e 65 87
e 65 94
e 65 96
e 65 98
e 66 67
e 66 68
e 66 69
e 66 71
e 66 75
e 66 80
e 66 82
e 66 88
e 66 91
e 66 92
e 66 94
e 66 97
e 67 70
e 67 71
e 67 73
e 67 74
e 67 78
e 67 79
e 67 80
e 67 84
e 67 86
e 67 88
e 67 89
e 67 91
e 67 94
e 67 98
e 68 71
e 68 72
e 68 73
e 68 78
e 68 80
e 68 81
e 68 84
e 68 85
e 68 86
e 68 93
e 68 94
e 68 97
e 68 99
e 68 100
e 69 73
e 69 74
e 69 75
e 69 76
e 69 77
e 69 79
e 69 86
e 69 88
e 69 89
e 69 90
e 69 92
e 69 94
e 69 95
e 69 96
e 69 97
e 69 98
e 69 99
e 70 71
e 70 73
e 70 74
e 70 75
e 70 79
e 70 80
e 70 82
e 70 84
e 70 85
e 70 86
e 70 87
e 70 88
e 70 89
e 70 93
e 70 94
e 70 95
e 70 98
e 71 72
e 71 75
e 71 76
e 71 82
e 71 83
e 71 93
e 71 98
e 72 73
e 72 77
e 72 78
e 72 80
e 72 83
e 72 85
e 72 86
e 72 87
e 72 96
e 72 97
e 72 99
e 72 100
e 73 74
e 73 77
e 73 78
e 73 79
e 73 85
e 73 88
e 73 90
e 73 96
e 73 97
e 74 77
e 74 78
e 74 82
e 74 83
e 74 85
e 74 87
e 74 89
e 74 90
e 74 94
e 74 95
e 74 96
e 74 100
e 75 80
e 75 83
e 75 84
e 75 85
e 75 86
e 75 93
e 75 97
e 75 98
e 75 100
e 76 77
e 76 78
e 76 80
e 76 81
e 76 82
e 76 83
e 76 85
e 76 89
e 76 92
e 76 93
e 76 96
e 76 97
e 76 98
e 76 100
e 77 78
e 77 81
e 77 83
e 77 85
e 77 86
e 77 87
e 77 88
e 77 91
e 77 95
e 77 96
e 77 99
e 78 80
e 78 83
e 78 84
e 78 86
e 78 92
e 78 94
e 78 96
e 79 80
e 79 82
e 79 83
e 79 85
e 79 86
e 79 89
e 79 94
e 79 95
e 79 98
e 79 99
e 80 81
e 80 84
e 80 86
e 80 87
e 80 89
e 80 91
e 80 94
e 80 99
e 80 100
e 81 82
e 81 84
e 81 87
e 81 88
e 81 90
e 81 93
e 81 95
e 81 97
e 81 99
e 82 85
e 82 88
e 82 92
e 82 93
e 82 94
e 82 95
e 82 99
e 83 84
e 83 86
e 83 87
e 83 89
e 83 95
e 83 96
e 83 98
e 83 99
e 83 100
e 84 85
e 84 86
e 85 90
e 85 91
e 85 92
e 86 90
e 86 96
e 87 88
e 87 92
e 87 93
e 87 95
e 87 97
e 88 90
e 88 91
e 88 93
e 88 94
e 88 97
e 89 95
e 89 96
e 90 91
e 90 93
e 90 95
e 90 96
e 91 93
e 91 94
e 91 95
e 91 98
e 91 99
e 92 93
e 92 97
e 93 94
e 95 96
e 95 99
e 96 99
e 98 99
e 99 100
n 16 3
n 22 3
n 26 3
n 38 3
n 39 3
n 47 3
n 55 3
n 56 3
n 61 3
n 62 2
n 65 3
n 81 3
n 82 3
n 86 4
n 89 3
n 91 3
n 94 3
n 95 3
n 97 3
n 100 1
